NAME : LR2_6_7
TYPE : PDPTW
DIMENSION : 150
EDGE_WEIGHT_TYPE : EXACT_2D
NODE_COORD_SECTION
1 1 0
2 150 0
3 0 0
4 16 4210
5 606 2
6 0 4646
7 3 284
8 4650 10
9 38 139
10 10 150
11 178 -9
12 447 0
13 27 0
14 211 7
15 2822 3062
16 8 175
17 4709 10
18 45 115
19 10 0
20 203 5
21 0 203
22 -15 2981
23 0 12
24 0 4635
25 13 274
26 4623 10
27 232 121
28 10 0
29 83 22
30 0 78
31 33 608
32 453 17
33 0 4743
34 18 61
35 1514 10
36 80 35
37 10 0
38 135 7
39 0 362
40 -12 622
41 0 22
42 2000 2240
43 23 102
44 4760 10
45 276 28
46 10 0
47 179 -29
48 177 0
49 -26 0
50 0 27
51 2436 2676
52 28 61
53 4724 10
54 283 144
55 10 0
56 232 -25
57 137 0
58 -17 2362
59 0 32
60 2227 2467
61 33 176
62 4698 10
63 117 168
64 10 225
65 102 -23
66 160 0
67 10 1582
68 553 37
69 0 4661
70 38 29
71 3184 10
72 136 241
73 10 0
74 42 -22
75 550 0
76 42 0
77 586 42
78 0 4664
79 43 136
80 2557 10
81 230 80
82 10 0
83 172 -16
84 101 0
85 16 0
86 307 47
87 2685 2925
88 48 72
89 4662 10
90 57 125
91 10 0
92 47 6
93 0 328
94 21 0
95 234 52
96 0 4713
97 53 220
98 2664 10
99 191 234
100 10 0
101 40 -18
102 281 0
103 -13 0
104 0 57
105 0 4698
106 58 272
107 1617 10
108 56 116
109 10 296
110 93 -14
111 214 0
112 24 0
113 333 62
114 2695 2935
115 63 208
116 4662 10
117 285 283
118 0 0
119 37 1
120 0 355
121 19 93
122 375 67
123 0 4692
124 68 37
125 4700 10
126 201 175
127 10 29
128 155 11
129 0 301
130 19 0
131 539 72
132 0 4666
133 73 279
134 4641 10
135 46 155
136 10 345
137 178 9
138 0 543
139 -33 0
140 0 77
141 2544 2784
142 78 268
143 3551 10
144 207 149
145 10 253
146 123 4
147 0 87
148 16 0
149 476 82
150 236 476
PICKUP_AND_DELIVERY_SECTION
1 0 0 0 0 0 0
2 0 0 0 0 4823 0
3 0 0 0 0 0 133
4 0 0 0 0 0 0
5 0 0 0 0 41 41
6 0 0 0 0 0 0
7 0 0 0 0 -12 -12
8 0 0 0 0 0 0
9 0 0 0 0 0 0
10 0 0 0 0 5 0
11 0 0 0 0 3244 3244
12 0 0 0 0 241 241
13 0 0 0 0 10 10
14 0 0 0 0 221 221
15 0 0 0 0 0 0
16 0 0 0 0 8 8
17 0 0 0 0 23 0
18 0 0 0 0 807 807
19 0 0 0 0 10 10
20 0 0 0 0 2343 2343
21 0 0 0 0 178 178
22 0 0 0 0 10 10
23 0 0 0 0 2 2
24 0 0 0 0 0 0
25 0 0 0 0 -21 -21
26 0 0 0 0 0 0
27 0 0 0 0 0 0
28 0 0 0 0 15 15
29 0 0 0 0 966 966
30 0 0 0 0 275 275
31 0 0 0 0 10 10
32 0 0 0 0 211 211
33 0 0 0 0 0 0
34 0 0 0 0 7 7
35 0 0 0 0 290 0
36 0 0 0 0 2000 2000
37 0 0 0 0 20 20
38 0 0 0 0 4665 0
39 0 0 0 0 60 60
40 0 0 0 0 10 10
41 0 0 0 0 127 127
42 0 0 0 0 295 295
43 0 0 0 0 -8 -8
44 0 0 0 0 0 0
45 0 0 0 0 991 991
46 0 0 0 0 25 25
47 0 0 0 0 4781 0
48 0 0 0 0 289 289
49 0 0 0 0 10 10
50 0 0 0 0 134 134
51 0 0 0 0 470 470
52 0 0 0 0 -25 -25
53 0 0 0 0 0 0
54 0 0 0 0 413 413
55 0 0 0 0 30 30
56 0 0 0 0 4716 0
57 0 0 0 0 120 120
58 0 0 0 0 10 10
59 0 0 0 0 64 64
60 0 0 0 0 294 294
61 0 0 0 0 5 5
62 0 0 0 0 380 0
63 0 0 0 0 0 0
64 0 0 0 0 35 0
65 0 0 0 0 4371 4371
66 0 0 0 0 157 157
67 0 0 0 0 10 10
68 0 0 0 0 3 3
69 0 0 0 0 464 464
70 0 0 0 0 24 24
71 0 0 0 0 437 0
72 0 0 0 0 1426 1426
73 0 0 0 0 40 40
74 0 0 0 0 1190 1190
75 0 0 0 0 183 183
76 0 0 0 0 10 10
77 0 0 0 0 299 299
78 0 0 0 0 0 0
79 0 0 0 0 -6 -6
80 0 0 0 0 0 0
81 0 0 0 0 0 0
82 0 0 0 0 45 45
83 0 0 0 0 3177 3177
84 0 0 0 0 136 136
85 0 0 0 0 10 10
86 0 0 0 0 200 200
87 0 0 0 0 84 84
88 0 0 0 0 -27 -27
89 0 0 0 0 0 0
90 0 0 0 0 783 783
91 0 0 0 0 50 50
92 0 0 0 0 4695 0
93 0 0 0 0 262 262
94 0 0 0 0 10 10
95 0 0 0 0 250 250
96 0 0 0 0 0 0
97 0 0 0 0 38 38
98 0 0 0 0 448 0
99 0 0 0 0 0 0
100 0 0 0 0 55 55
101 0 0 0 0 4697 0
102 0 0 0 0 227 227
103 0 0 0 0 10 10
104 0 0 0 0 141 141
105 0 0 0 0 0 0
106 0 0 0 0 -16 -16
107 0 0 0 0 0 0
108 0 0 0 0 859 859
109 0 0 0 0 60 0
110 0 0 0 0 2082 2082
111 0 0 0 0 120 120
112 0 0 0 0 10 10
113 0 0 0 0 119 119
114 0 0 0 0 0 0
115 0 0 0 0 16 16
116 0 0 0 0 462 0
117 0 0 0 0 2154 2154
118 0 0 0 0 65 65
119 0 0 0 0 3445 3445
120 0 0 0 0 180 180
121 0 0 0 0 10 10
122 0 0 0 0 139 139
123 0 0 0 0 0 0
124 0 0 0 0 -24 -24
125 0 0 0 0 0 0
126 0 0 0 0 2711 2711
127 0 0 0 0 70 0
128 0 0 0 0 262 262
129 0 0 0 0 94 94
130 0 0 0 0 10 10
131 0 0 0 0 135 135
132 0 0 0 0 0 0
133 0 0 0 0 29 29
134 0 0 0 0 322 0
135 0 0 0 0 2961 2961
136 0 0 0 0 75 0
137 0 0 0 0 4676 0
138 0 0 0 0 15 15
139 0 0 0 0 10 10
140 0 0 0 0 146 146
141 0 0 0 0 0 0
142 0 0 0 0 -22 -22
143 0 0 0 0 0 0
144 0 0 0 0 0 0
145 0 0 0 0 80 0
146 0 0 0 0 279 279
147 0 0 0 0 103 103
148 0 0 0 0 10 10
149 0 0 0 0 235 235
150 0 0 0 0 0 0
DEPOT_SECTION
1 
-1
EOF
